p cnf 666 1687
a 1 2 3 4 5 6 7 8 9 10 11 12 13 14 15 16 17 18 19 20 21 22 23 24 25 26 27 28 29 30 31 32 33 34 35 36 37 38 39 40 41 42 43 44 45 46 47 48 49 50 51 52 53 54 55 56 57 58 59 60 61 62 63 64 65 66 67 68 69 70 71 72 73 74 75 76 77 78 79 80 81 82 83 84 85 86 87 88 89 90 91 92 93 94 95 96 0
e 97 98 99 100 101 102 103 104 105 106 107 108 109 110 111 112 113 114 115 116 117 118 119 120 121 122 123 124 125 126 127 128 129 130 131 132 133 134 135 136 137 138 139 140 141 142 143 144 145 146 147 148 149 150 151 152 153 154 155 156 157 158 159 160 161 162 163 164 165 166 167 168 169 170 171 172 173 174 175 176 177 178 179 180 181 182 183 184 185 186 187 188 189 190 191 192 193 194 195 196 197 198 199 200 201 202 203 204 205 206 207 208 209 210 211 212 213 214 215 216 217 218 219 220 221 222 223 224 225 226 227 228 229 230 231 232 233 234 235 236 237 238 239 240 241 242 243 244 245 246 247 248 249 250 251 252 253 254 255 256 257 258 259 260 261 262 263 264 265 266 267 268 269 270 271 272 273 274 275 276 277 278 279 280 281 282 283 284 285 286 287 288 289 290 291 292 293 294 295 296 297 298 299 300 301 302 303 304 305 306 307 308 309 310 311 312 313 314 315 316 317 318 319 320 321 322 323 324 325 326 327 328 329 330 331 332 333 334 335 336 337 338 339 340 341 342 343 344 345 346 347 348 349 350 351 352 353 354 355 356 357 358 359 360 361 362 363 364 365 366 367 368 369 370 371 372 373 374 375 376 377 378 379 380 381 382 383 384 385 386 387 388 389 390 391 392 393 394 395 396 397 398 399 400 401 402 403 404 405 406 407 408 409 410 411 412 413 414 415 416 417 418 419 420 421 422 423 424 425 426 427 428 429 430 431 432 433 434 435 436 437 438 439 440 441 442 443 444 445 446 447 448 449 450 451 452 453 454 455 456 457 458 459 460 461 462 463 464 465 466 467 468 469 470 471 472 473 474 475 476 477 478 479 480 481 482 483 484 485 486 487 488 489 490 491 492 493 494 495 496 497 498 499 500 501 502 503 504 505 506 507 508 509 510 511 512 513 514 515 516 517 518 519 520 521 522 523 524 525 526 527 528 529 530 531 532 533 534 535 536 537 538 539 540 541 542 543 544 545 546 547 548 549 550 551 552 553 554 555 556 557 558 559 560 561 562 563 564 565 566 567 568 569 570 571 572 573 574 575 576 577 578 579 580 581 582 583 584 585 586 587 588 589 590 591 592 593 594 595 596 597 598 599 600 601 602 603 604 605 606 607 608 609 610 611 612 613 614 615 616 617 618 619 620 621 622 623 624 625 626 627 628 629 630 631 632 633 634 635 636 637 638 639 640 641 642 643 644 645 646 647 648 649 650 651 652 653 654 655 656 657 658 659 660 661 662 663 664 0
113 97 0
-113 -97 0
114 98 -113 0
-114 113 0
-114 -98 0
115 -114 0
-115 114 0
116 99 -115 0
-116 115 0
-116 -99 0
117 -116 0
-117 116 0
118 100 -117 0
-118 117 0
-118 -100 0
119 -118 0
119 -117 0
119 100 0
-119 -100 117 118 0
120 101 -119 0
-120 119 0
-120 -101 0
121 -120 0
-121 120 0
122 102 -121 0
-122 121 0
-122 -102 0
123 -122 0
123 -121 0
123 102 0
-123 -102 121 122 0
124 103 -123 0
-124 123 0
-124 -103 0
125 -124 0
125 -123 0
125 103 0
-125 -103 123 124 0
126 104 -125 0
-126 125 0
-126 -104 0
127 -126 0
127 -125 0
127 104 0
-127 -104 125 126 0
128 105 -127 0
-128 127 0
-128 -105 0
129 -128 0
129 -127 0
129 105 0
-129 -105 127 128 0
130 106 -129 0
-130 129 0
-130 -106 0
131 -130 0
131 -129 0
131 106 0
-131 -106 129 130 0
132 107 -131 0
-132 131 0
-132 -107 0
133 -132 0
-133 132 0
134 108 -133 0
-134 133 0
-134 -108 0
135 -134 0
-135 134 0
136 109 -135 0
-136 135 0
-136 -109 0
137 -136 0
-137 136 0
138 110 -137 0
-138 137 0
-138 -110 0
139 -138 0
-139 138 0
140 111 -139 0
-140 139 0
-140 -111 0
141 -140 0
-141 140 0
142 112 -141 0
-142 141 0
-142 -112 0
143 -142 0
-143 142 0
144 -112 -143 0
144 112 143 0
-144 -112 143 0
-144 112 -143 0
146 0
-146 -144 -145 0
163 147 0
-163 -147 0
164 148 -163 0
-164 163 0
-164 -148 0
165 -164 0
-165 164 0
166 149 -165 0
-166 165 0
-166 -149 0
167 -166 0
-167 166 0
168 150 -167 0
-168 167 0
-168 -150 0
169 -168 0
169 -167 0
169 150 0
-169 -150 167 168 0
170 151 -169 0
-170 169 0
-170 -151 0
171 -170 0
-171 170 0
172 152 -171 0
-172 171 0
-172 -152 0
173 -172 0
173 -171 0
173 152 0
-173 -152 171 172 0
174 153 -173 0
-174 173 0
-174 -153 0
175 -174 0
175 -173 0
175 153 0
-175 -153 173 174 0
176 154 -175 0
-176 175 0
-176 -154 0
177 -176 0
177 -175 0
177 154 0
-177 -154 175 176 0
178 155 -177 0
-178 177 0
-178 -155 0
179 -178 0
179 -177 0
179 155 0
-179 -155 177 178 0
180 156 -179 0
-180 179 0
-180 -156 0
181 -180 0
181 -179 0
181 156 0
-181 -156 179 180 0
182 157 -181 0
-182 181 0
-182 -157 0
183 -182 0
-183 182 0
184 158 -183 0
-184 183 0
-184 -158 0
185 -184 0
-185 184 0
186 159 -185 0
-186 185 0
-186 -159 0
187 -186 0
-187 186 0
188 160 -187 0
-188 187 0
-188 -160 0
189 -188 0
-189 188 0
190 161 -189 0
-190 189 0
-190 -161 0
191 -190 0
-191 190 0
192 162 -191 0
-192 191 0
-192 -162 0
193 -192 0
-193 192 0
194 -162 -193 0
194 162 193 0
-194 -162 193 0
-194 162 -193 0
196 0
-196 -194 -195 0
197 1 -147 0
197 -1 147 0
-197 1 147 0
-197 -1 -147 0
198 2 -148 0
198 -2 148 0
-198 2 148 0
-198 -2 -148 0
199 3 -149 0
199 -3 149 0
-199 3 149 0
-199 -3 -149 0
200 4 -150 0
200 -4 150 0
-200 4 150 0
-200 -4 -150 0
201 5 -151 0
201 -5 151 0
-201 5 151 0
-201 -5 -151 0
202 6 -152 0
202 -6 152 0
-202 6 152 0
-202 -6 -152 0
203 7 -153 0
203 -7 153 0
-203 7 153 0
-203 -7 -153 0
204 8 -154 0
204 -8 154 0
-204 8 154 0
-204 -8 -154 0
205 9 -155 0
205 -9 155 0
-205 9 155 0
-205 -9 -155 0
206 10 -156 0
206 -10 156 0
-206 10 156 0
-206 -10 -156 0
207 11 -157 0
207 -11 157 0
-207 11 157 0
-207 -11 -157 0
208 12 -158 0
208 -12 158 0
-208 12 158 0
-208 -12 -158 0
209 13 -159 0
209 -13 159 0
-209 13 159 0
-209 -13 -159 0
210 14 -160 0
210 -14 160 0
-210 14 160 0
-210 -14 -160 0
211 15 -161 0
211 -15 161 0
-211 15 161 0
-211 -15 -161 0
212 16 -162 0
212 -16 162 0
-212 16 162 0
-212 -16 -162 0
213 197 198 199 200 201 202 203 204 205 206 207 208 209 210 211 212 0
-213 -212 0
-213 -211 0
-213 -210 0
-213 -209 0
-213 -208 0
-213 -207 0
-213 -206 0
-213 -205 0
-213 -204 0
-213 -203 0
-213 -202 0
-213 -201 0
-213 -200 0
-213 -199 0
-213 -198 0
-213 -197 0
214 49 -147 0
214 -49 147 0
-214 49 147 0
-214 -49 -147 0
215 50 -148 0
215 -50 148 0
-215 50 148 0
-215 -50 -148 0
216 51 -149 0
216 -51 149 0
-216 51 149 0
-216 -51 -149 0
217 52 -150 0
217 -52 150 0
-217 52 150 0
-217 -52 -150 0
218 53 -151 0
218 -53 151 0
-218 53 151 0
-218 -53 -151 0
219 54 -152 0
219 -54 152 0
-219 54 152 0
-219 -54 -152 0
220 55 -153 0
220 -55 153 0
-220 55 153 0
-220 -55 -153 0
221 56 -154 0
221 -56 154 0
-221 56 154 0
-221 -56 -154 0
222 57 -155 0
222 -57 155 0
-222 57 155 0
-222 -57 -155 0
223 58 -156 0
223 -58 156 0
-223 58 156 0
-223 -58 -156 0
224 59 -157 0
224 -59 157 0
-224 59 157 0
-224 -59 -157 0
225 60 -158 0
225 -60 158 0
-225 60 158 0
-225 -60 -158 0
226 61 -159 0
226 -61 159 0
-226 61 159 0
-226 -61 -159 0
227 62 -160 0
227 -62 160 0
-227 62 160 0
-227 -62 -160 0
228 63 -161 0
228 -63 161 0
-228 63 161 0
-228 -63 -161 0
229 64 -162 0
229 -64 162 0
-229 64 162 0
-229 -64 -162 0
230 214 215 216 217 218 219 220 221 222 223 224 225 226 227 228 229 0
-230 -229 0
-230 -228 0
-230 -227 0
-230 -226 0
-230 -225 0
-230 -224 0
-230 -223 0
-230 -222 0
-230 -221 0
-230 -220 0
-230 -219 0
-230 -218 0
-230 -217 0
-230 -216 0
-230 -215 0
-230 -214 0
231 17 -97 0
231 -17 97 0
-231 17 97 0
-231 -17 -97 0
232 18 -98 0
232 -18 98 0
-232 18 98 0
-232 -18 -98 0
233 19 -99 0
233 -19 99 0
-233 19 99 0
-233 -19 -99 0
234 20 -100 0
234 -20 100 0
-234 20 100 0
-234 -20 -100 0
235 21 -101 0
235 -21 101 0
-235 21 101 0
-235 -21 -101 0
236 22 -102 0
236 -22 102 0
-236 22 102 0
-236 -22 -102 0
237 23 -103 0
237 -23 103 0
-237 23 103 0
-237 -23 -103 0
238 24 -104 0
238 -24 104 0
-238 24 104 0
-238 -24 -104 0
239 25 -105 0
239 -25 105 0
-239 25 105 0
-239 -25 -105 0
240 26 -106 0
240 -26 106 0
-240 26 106 0
-240 -26 -106 0
241 27 -107 0
241 -27 107 0
-241 27 107 0
-241 -27 -107 0
242 28 -108 0
242 -28 108 0
-242 28 108 0
-242 -28 -108 0
243 29 -109 0
243 -29 109 0
-243 29 109 0
-243 -29 -109 0
244 30 -110 0
244 -30 110 0
-244 30 110 0
-244 -30 -110 0
245 31 -111 0
245 -31 111 0
-245 31 111 0
-245 -31 -111 0
246 32 -112 0
246 -32 112 0
-246 32 112 0
-246 -32 -112 0
247 231 232 233 234 235 236 237 238 239 240 241 242 243 244 245 246 0
-247 -246 0
-247 -245 0
-247 -244 0
-247 -243 0
-247 -242 0
-247 -241 0
-247 -240 0
-247 -239 0
-247 -238 0
-247 -237 0
-247 -236 0
-247 -235 0
-247 -234 0
-247 -233 0
-247 -232 0
-247 -231 0
248 65 -97 0
248 -65 97 0
-248 65 97 0
-248 -65 -97 0
249 66 -98 0
249 -66 98 0
-249 66 98 0
-249 -66 -98 0
250 67 -99 0
250 -67 99 0
-250 67 99 0
-250 -67 -99 0
251 68 -100 0
251 -68 100 0
-251 68 100 0
-251 -68 -100 0
252 69 -101 0
252 -69 101 0
-252 69 101 0
-252 -69 -101 0
253 70 -102 0
253 -70 102 0
-253 70 102 0
-253 -70 -102 0
254 71 -103 0
254 -71 103 0
-254 71 103 0
-254 -71 -103 0
255 72 -104 0
255 -72 104 0
-255 72 104 0
-255 -72 -104 0
256 73 -105 0
256 -73 105 0
-256 73 105 0
-256 -73 -105 0
257 74 -106 0
257 -74 106 0
-257 74 106 0
-257 -74 -106 0
258 75 -107 0
258 -75 107 0
-258 75 107 0
-258 -75 -107 0
259 76 -108 0
259 -76 108 0
-259 76 108 0
-259 -76 -108 0
260 77 -109 0
260 -77 109 0
-260 77 109 0
-260 -77 -109 0
261 78 -110 0
261 -78 110 0
-261 78 110 0
-261 -78 -110 0
262 79 -111 0
262 -79 111 0
-262 79 111 0
-262 -79 -111 0
263 80 -112 0
263 -80 112 0
-263 80 112 0
-263 -80 -112 0
264 248 249 250 251 252 253 254 255 256 257 258 259 260 261 262 263 0
-264 -263 0
-264 -262 0
-264 -261 0
-264 -260 0
-264 -259 0
-264 -258 0
-264 -257 0
-264 -256 0
-264 -255 0
-264 -254 0
-264 -253 0
-264 -252 0
-264 -251 0
-264 -250 0
-264 -249 0
-264 -248 0
265 33 34 35 36 37 38 39 40 41 42 43 44 45 46 47 48 0
-265 -48 0
-265 -47 0
-265 -46 0
-265 -45 0
-265 -44 0
-265 -43 0
-265 -42 0
-265 -41 0
-265 -40 0
-265 -39 0
-265 -38 0
-265 -37 0
-265 -36 0
-265 -35 0
-265 -34 0
-265 -33 0
266 -81 82 83 84 85 86 87 88 89 90 91 92 93 94 95 96 0
-266 -96 0
-266 -95 0
-266 -94 0
-266 -93 0
-266 -92 0
-266 -91 0
-266 -90 0
-266 -89 0
-266 -88 0
-266 -87 0
-266 -86 0
-266 -85 0
-266 -84 0
-266 -83 0
-266 -82 0
-266 81 0
267 -144 -194 -213 -230 -247 -264 -265 -266 0
-267 266 0
-267 265 0
-267 264 0
-267 247 0
-267 230 0
-267 213 0
-267 194 0
-267 144 0
300 268 -284 0
-300 -268 0
-300 284 0
301 268 0
301 -284 0
301 -300 0
-301 -268 284 300 0
302 269 -285 0
-302 -269 0
-302 285 0
303 -285 -301 0
-303 301 0
-303 285 0
304 269 -301 0
-304 301 0
-304 -269 0
305 -304 0
305 -303 0
305 -302 0
-305 302 303 304 0
306 270 -286 0
-306 -270 0
-306 286 0
307 -286 -305 0
-307 305 0
-307 286 0
308 270 -305 0
-308 305 0
-308 -270 0
309 -308 0
309 -307 0
309 -306 0
-309 306 307 308 0
310 271 -287 0
-310 -271 0
-310 287 0
311 -287 -309 0
-311 309 0
-311 287 0
312 271 -309 0
-312 309 0
-312 -271 0
313 -312 0
313 -311 0
313 -310 0
-313 310 311 312 0
314 272 -288 0
-314 -272 0
-314 288 0
315 -288 -313 0
-315 313 0
-315 288 0
316 272 -313 0
-316 313 0
-316 -272 0
317 -316 0
317 -315 0
317 -314 0
-317 314 315 316 0
318 273 -289 0
-318 -273 0
-318 289 0
319 -289 -317 0
-319 317 0
-319 289 0
320 273 -317 0
-320 317 0
-320 -273 0
321 -320 0
321 -319 0
321 -318 0
-321 318 319 320 0
322 274 -290 0
-322 -274 0
-322 290 0
323 -290 -321 0
-323 321 0
-323 290 0
324 274 -321 0
-324 321 0
-324 -274 0
325 -324 0
325 -323 0
325 -322 0
-325 322 323 324 0
326 275 -291 0
-326 -275 0
-326 291 0
327 -291 -325 0
-327 325 0
-327 291 0
328 275 -325 0
-328 325 0
-328 -275 0
329 -328 0
329 -327 0
329 -326 0
-329 326 327 328 0
330 276 -292 0
-330 -276 0
-330 292 0
331 -292 -329 0
-331 329 0
-331 292 0
332 276 -329 0
-332 329 0
-332 -276 0
333 -332 0
333 -331 0
333 -330 0
-333 330 331 332 0
334 277 -293 0
-334 -277 0
-334 293 0
335 -293 -333 0
-335 333 0
-335 293 0
336 277 -333 0
-336 333 0
-336 -277 0
337 -336 0
337 -335 0
337 -334 0
-337 334 335 336 0
338 278 -294 0
-338 -278 0
-338 294 0
339 -294 -337 0
-339 337 0
-339 294 0
340 278 -337 0
-340 337 0
-340 -278 0
341 -340 0
341 -339 0
341 -338 0
-341 338 339 340 0
342 279 -295 0
-342 -279 0
-342 295 0
343 -295 -341 0
-343 341 0
-343 295 0
344 279 -341 0
-344 341 0
-344 -279 0
345 -344 0
345 -343 0
345 -342 0
-345 342 343 344 0
346 280 -296 0
-346 -280 0
-346 296 0
347 -296 -345 0
-347 345 0
-347 296 0
348 280 -345 0
-348 345 0
-348 -280 0
349 -348 0
349 -347 0
349 -346 0
-349 346 347 348 0
350 281 -297 0
-350 -281 0
-350 297 0
351 -297 -349 0
-351 349 0
-351 297 0
352 281 -349 0
-352 349 0
-352 -281 0
353 -352 0
353 -351 0
353 -350 0
-353 350 351 352 0
354 282 -298 0
-354 -282 0
-354 298 0
355 -298 -353 0
-355 353 0
-355 298 0
356 282 -353 0
-356 353 0
-356 -282 0
357 -356 0
357 -355 0
357 -354 0
-357 354 355 356 0
358 283 -299 0
-358 -283 0
-358 299 0
359 -299 -357 0
-359 357 0
-359 299 0
360 283 -357 0
-360 357 0
-360 -283 0
361 -360 0
361 -359 0
361 -358 0
-361 358 359 360 0
362 -283 299 0
362 283 -299 0
-362 283 299 0
-362 -283 -299 0
363 -361 -362 0
363 361 362 0
-363 361 -362 0
-363 -361 362 0
365 0
-365 -363 -364 0
398 366 -382 0
-398 -366 0
-398 382 0
399 366 0
399 -382 0
399 -398 0
-399 -366 382 398 0
400 367 -383 0
-400 -367 0
-400 383 0
401 -383 -399 0
-401 399 0
-401 383 0
402 367 -399 0
-402 399 0
-402 -367 0
403 -402 0
403 -401 0
403 -400 0
-403 400 401 402 0
404 368 -384 0
-404 -368 0
-404 384 0
405 -384 -403 0
-405 403 0
-405 384 0
406 368 -403 0
-406 403 0
-406 -368 0
407 -406 0
407 -405 0
407 -404 0
-407 404 405 406 0
408 369 -385 0
-408 -369 0
-408 385 0
409 -385 -407 0
-409 407 0
-409 385 0
410 369 -407 0
-410 407 0
-410 -369 0
411 -410 0
411 -409 0
411 -408 0
-411 408 409 410 0
412 370 -386 0
-412 -370 0
-412 386 0
413 -386 -411 0
-413 411 0
-413 386 0
414 370 -411 0
-414 411 0
-414 -370 0
415 -414 0
415 -413 0
415 -412 0
-415 412 413 414 0
416 371 -387 0
-416 -371 0
-416 387 0
417 -387 -415 0
-417 415 0
-417 387 0
418 371 -415 0
-418 415 0
-418 -371 0
419 -418 0
419 -417 0
419 -416 0
-419 416 417 418 0
420 372 -388 0
-420 -372 0
-420 388 0
421 -388 -419 0
-421 419 0
-421 388 0
422 372 -419 0
-422 419 0
-422 -372 0
423 -422 0
423 -421 0
423 -420 0
-423 420 421 422 0
424 373 -389 0
-424 -373 0
-424 389 0
425 -389 -423 0
-425 423 0
-425 389 0
426 373 -423 0
-426 423 0
-426 -373 0
427 -426 0
427 -425 0
427 -424 0
-427 424 425 426 0
428 374 -390 0
-428 -374 0
-428 390 0
429 -390 -427 0
-429 427 0
-429 390 0
430 374 -427 0
-430 427 0
-430 -374 0
431 -430 0
431 -429 0
431 -428 0
-431 428 429 430 0
432 375 -391 0
-432 -375 0
-432 391 0
433 -391 -431 0
-433 431 0
-433 391 0
434 375 -431 0
-434 431 0
-434 -375 0
435 -434 0
435 -433 0
435 -432 0
-435 432 433 434 0
436 376 -392 0
-436 -376 0
-436 392 0
437 -392 -435 0
-437 435 0
-437 392 0
438 376 -435 0
-438 435 0
-438 -376 0
439 -438 0
439 -437 0
439 -436 0
-439 436 437 438 0
440 377 -393 0
-440 -377 0
-440 393 0
441 -393 -439 0
-441 439 0
-441 393 0
442 377 -439 0
-442 439 0
-442 -377 0
443 -442 0
443 -441 0
443 -440 0
-443 440 441 442 0
444 378 -394 0
-444 -378 0
-444 394 0
445 -394 -443 0
-445 443 0
-445 394 0
446 378 -443 0
-446 443 0
-446 -378 0
447 -446 0
447 -445 0
447 -444 0
-447 444 445 446 0
448 379 -395 0
-448 -379 0
-448 395 0
449 -395 -447 0
-449 447 0
-449 395 0
450 379 -447 0
-450 447 0
-450 -379 0
451 -450 0
451 -449 0
451 -448 0
-451 448 449 450 0
452 380 -396 0
-452 -380 0
-452 396 0
453 -396 -451 0
-453 451 0
-453 396 0
454 380 -451 0
-454 451 0
-454 -380 0
455 -454 0
455 -453 0
455 -452 0
-455 452 453 454 0
456 381 -397 0
-456 -381 0
-456 397 0
457 -397 -455 0
-457 455 0
-457 397 0
458 381 -455 0
-458 455 0
-458 -381 0
459 -458 0
459 -457 0
459 -456 0
-459 456 457 458 0
460 -381 397 0
460 381 -397 0
-460 381 397 0
-460 -381 -397 0
461 -459 -460 0
461 459 460 0
-461 459 -460 0
-461 -459 460 0
463 0
-463 -461 -462 0
496 464 -480 0
-496 -464 0
-496 480 0
497 464 0
497 -480 0
497 -496 0
-497 -464 480 496 0
498 465 -481 0
-498 -465 0
-498 481 0
499 -481 -497 0
-499 497 0
-499 481 0
500 465 -497 0
-500 497 0
-500 -465 0
501 -500 0
501 -499 0
501 -498 0
-501 498 499 500 0
502 466 -482 0
-502 -466 0
-502 482 0
503 -482 -501 0
-503 501 0
-503 482 0
504 466 -501 0
-504 501 0
-504 -466 0
505 -504 0
505 -503 0
505 -502 0
-505 502 503 504 0
506 467 -483 0
-506 -467 0
-506 483 0
507 -483 -505 0
-507 505 0
-507 483 0
508 467 -505 0
-508 505 0
-508 -467 0
509 -508 0
509 -507 0
509 -506 0
-509 506 507 508 0
510 468 -484 0
-510 -468 0
-510 484 0
511 -484 -509 0
-511 509 0
-511 484 0
512 468 -509 0
-512 509 0
-512 -468 0
513 -512 0
513 -511 0
513 -510 0
-513 510 511 512 0
514 469 -485 0
-514 -469 0
-514 485 0
515 -485 -513 0
-515 513 0
-515 485 0
516 469 -513 0
-516 513 0
-516 -469 0
517 -516 0
517 -515 0
517 -514 0
-517 514 515 516 0
518 470 -486 0
-518 -470 0
-518 486 0
519 -486 -517 0
-519 517 0
-519 486 0
520 470 -517 0
-520 517 0
-520 -470 0
521 -520 0
521 -519 0
521 -518 0
-521 518 519 520 0
522 471 -487 0
-522 -471 0
-522 487 0
523 -487 -521 0
-523 521 0
-523 487 0
524 471 -521 0
-524 521 0
-524 -471 0
525 -524 0
525 -523 0
525 -522 0
-525 522 523 524 0
526 472 -488 0
-526 -472 0
-526 488 0
527 -488 -525 0
-527 525 0
-527 488 0
528 472 -525 0
-528 525 0
-528 -472 0
529 -528 0
529 -527 0
529 -526 0
-529 526 527 528 0
530 473 -489 0
-530 -473 0
-530 489 0
531 -489 -529 0
-531 529 0
-531 489 0
532 473 -529 0
-532 529 0
-532 -473 0
533 -532 0
533 -531 0
533 -530 0
-533 530 531 532 0
534 474 -490 0
-534 -474 0
-534 490 0
535 -490 -533 0
-535 533 0
-535 490 0
536 474 -533 0
-536 533 0
-536 -474 0
537 -536 0
537 -535 0
537 -534 0
-537 534 535 536 0
538 475 -491 0
-538 -475 0
-538 491 0
539 -491 -537 0
-539 537 0
-539 491 0
540 475 -537 0
-540 537 0
-540 -475 0
541 -540 0
541 -539 0
541 -538 0
-541 538 539 540 0
542 476 -492 0
-542 -476 0
-542 492 0
543 -492 -541 0
-543 541 0
-543 492 0
544 476 -541 0
-544 541 0
-544 -476 0
545 -544 0
545 -543 0
545 -542 0
-545 542 543 544 0
546 477 -493 0
-546 -477 0
-546 493 0
547 -493 -545 0
-547 545 0
-547 493 0
548 477 -545 0
-548 545 0
-548 -477 0
549 -548 0
549 -547 0
549 -546 0
-549 546 547 548 0
550 478 -494 0
-550 -478 0
-550 494 0
551 -494 -549 0
-551 549 0
-551 494 0
552 478 -549 0
-552 549 0
-552 -478 0
553 -552 0
553 -551 0
553 -550 0
-553 550 551 552 0
554 479 -495 0
-554 -479 0
-554 495 0
555 -495 -553 0
-555 553 0
-555 495 0
556 479 -553 0
-556 553 0
-556 -479 0
557 -556 0
557 -555 0
557 -554 0
-557 554 555 556 0
558 -479 495 0
558 479 -495 0
-558 479 495 0
-558 -479 -495 0
559 -557 -558 0
559 557 558 0
-559 557 -558 0
-559 -557 558 0
561 0
-561 -559 -560 0
562 -267 0
562 -363 -461 -559 0
-562 559 0
-562 461 0
-562 363 0
563 1 -49 0
563 -1 49 0
-563 1 49 0
-563 -1 -49 0
564 2 -50 0
564 -2 50 0
-564 2 50 0
-564 -2 -50 0
565 3 -51 0
565 -3 51 0
-565 3 51 0
-565 -3 -51 0
566 4 -52 0
566 -4 52 0
-566 4 52 0
-566 -4 -52 0
567 5 -53 0
567 -5 53 0
-567 5 53 0
-567 -5 -53 0
568 6 -54 0
568 -6 54 0
-568 6 54 0
-568 -6 -54 0
569 7 -55 0
569 -7 55 0
-569 7 55 0
-569 -7 -55 0
570 8 -56 0
570 -8 56 0
-570 8 56 0
-570 -8 -56 0
571 9 -57 0
571 -9 57 0
-571 9 57 0
-571 -9 -57 0
572 10 -58 0
572 -10 58 0
-572 10 58 0
-572 -10 -58 0
573 11 -59 0
573 -11 59 0
-573 11 59 0
-573 -11 -59 0
574 12 -60 0
574 -12 60 0
-574 12 60 0
-574 -12 -60 0
575 13 -61 0
575 -13 61 0
-575 13 61 0
-575 -13 -61 0
576 14 -62 0
576 -14 62 0
-576 14 62 0
-576 -14 -62 0
577 15 -63 0
577 -15 63 0
-577 15 63 0
-577 -15 -63 0
578 16 -64 0
578 -16 64 0
-578 16 64 0
-578 -16 -64 0
579 563 564 565 566 567 568 569 570 571 572 573 574 575 576 577 578 0
-579 -578 0
-579 -577 0
-579 -576 0
-579 -575 0
-579 -574 0
-579 -573 0
-579 -572 0
-579 -571 0
-579 -570 0
-579 -569 0
-579 -568 0
-579 -567 0
-579 -566 0
-579 -565 0
-579 -564 0
-579 -563 0
580 268 -284 0
580 -268 284 0
-580 268 284 0
-580 -268 -284 0
581 269 -285 0
581 -269 285 0
-581 269 285 0
-581 -269 -285 0
582 270 -286 0
582 -270 286 0
-582 270 286 0
-582 -270 -286 0
583 271 -287 0
583 -271 287 0
-583 271 287 0
-583 -271 -287 0
584 272 -288 0
584 -272 288 0
-584 272 288 0
-584 -272 -288 0
585 273 -289 0
585 -273 289 0
-585 273 289 0
-585 -273 -289 0
586 274 -290 0
586 -274 290 0
-586 274 290 0
-586 -274 -290 0
587 275 -291 0
587 -275 291 0
-587 275 291 0
-587 -275 -291 0
588 276 -292 0
588 -276 292 0
-588 276 292 0
-588 -276 -292 0
589 277 -293 0
589 -277 293 0
-589 277 293 0
-589 -277 -293 0
590 278 -294 0
590 -278 294 0
-590 278 294 0
-590 -278 -294 0
591 279 -295 0
591 -279 295 0
-591 279 295 0
-591 -279 -295 0
592 280 -296 0
592 -280 296 0
-592 280 296 0
-592 -280 -296 0
593 281 -297 0
593 -281 297 0
-593 281 297 0
-593 -281 -297 0
594 282 -298 0
594 -282 298 0
-594 282 298 0
-594 -282 -298 0
595 283 -299 0
595 -283 299 0
-595 283 299 0
-595 -283 -299 0
596 -579 0
596 580 581 582 583 584 585 586 587 588 589 590 591 592 593 594 595 0
-596 -595 0
-596 -594 0
-596 -593 0
-596 -592 0
-596 -591 0
-596 -590 0
-596 -589 0
-596 -588 0
-596 -587 0
-596 -586 0
-596 -585 0
-596 -584 0
-596 -583 0
-596 -582 0
-596 -581 0
-596 -580 0
597 17 -65 0
597 -17 65 0
-597 17 65 0
-597 -17 -65 0
598 18 -66 0
598 -18 66 0
-598 18 66 0
-598 -18 -66 0
599 19 -67 0
599 -19 67 0
-599 19 67 0
-599 -19 -67 0
600 20 -68 0
600 -20 68 0
-600 20 68 0
-600 -20 -68 0
601 21 -69 0
601 -21 69 0
-601 21 69 0
-601 -21 -69 0
602 22 -70 0
602 -22 70 0
-602 22 70 0
-602 -22 -70 0
603 23 -71 0
603 -23 71 0
-603 23 71 0
-603 -23 -71 0
604 24 -72 0
604 -24 72 0
-604 24 72 0
-604 -24 -72 0
605 25 -73 0
605 -25 73 0
-605 25 73 0
-605 -25 -73 0
606 26 -74 0
606 -26 74 0
-606 26 74 0
-606 -26 -74 0
607 27 -75 0
607 -27 75 0
-607 27 75 0
-607 -27 -75 0
608 28 -76 0
608 -28 76 0
-608 28 76 0
-608 -28 -76 0
609 29 -77 0
609 -29 77 0
-609 29 77 0
-609 -29 -77 0
610 30 -78 0
610 -30 78 0
-610 30 78 0
-610 -30 -78 0
611 31 -79 0
611 -31 79 0
-611 31 79 0
-611 -31 -79 0
612 32 -80 0
612 -32 80 0
-612 32 80 0
-612 -32 -80 0
613 597 598 599 600 601 602 603 604 605 606 607 608 609 610 611 612 0
-613 -612 0
-613 -611 0
-613 -610 0
-613 -609 0
-613 -608 0
-613 -607 0
-613 -606 0
-613 -605 0
-613 -604 0
-613 -603 0
-613 -602 0
-613 -601 0
-613 -600 0
-613 -599 0
-613 -598 0
-613 -597 0
614 366 -382 0
614 -366 382 0
-614 366 382 0
-614 -366 -382 0
615 367 -383 0
615 -367 383 0
-615 367 383 0
-615 -367 -383 0
616 368 -384 0
616 -368 384 0
-616 368 384 0
-616 -368 -384 0
617 369 -385 0
617 -369 385 0
-617 369 385 0
-617 -369 -385 0
618 370 -386 0
618 -370 386 0
-618 370 386 0
-618 -370 -386 0
619 371 -387 0
619 -371 387 0
-619 371 387 0
-619 -371 -387 0
620 372 -388 0
620 -372 388 0
-620 372 388 0
-620 -372 -388 0
621 373 -389 0
621 -373 389 0
-621 373 389 0
-621 -373 -389 0
622 374 -390 0
622 -374 390 0
-622 374 390 0
-622 -374 -390 0
623 375 -391 0
623 -375 391 0
-623 375 391 0
-623 -375 -391 0
624 376 -392 0
624 -376 392 0
-624 376 392 0
-624 -376 -392 0
625 377 -393 0
625 -377 393 0
-625 377 393 0
-625 -377 -393 0
626 378 -394 0
626 -378 394 0
-626 378 394 0
-626 -378 -394 0
627 379 -395 0
627 -379 395 0
-627 379 395 0
-627 -379 -395 0
628 380 -396 0
628 -380 396 0
-628 380 396 0
-628 -380 -396 0
629 381 -397 0
629 -381 397 0
-629 381 397 0
-629 -381 -397 0
630 -613 0
630 614 615 616 617 618 619 620 621 622 623 624 625 626 627 628 629 0
-630 -629 0
-630 -628 0
-630 -627 0
-630 -626 0
-630 -625 0
-630 -624 0
-630 -623 0
-630 -622 0
-630 -621 0
-630 -620 0
-630 -619 0
-630 -618 0
-630 -617 0
-630 -616 0
-630 -615 0
-630 -614 0
631 33 -81 0
631 -33 81 0
-631 33 81 0
-631 -33 -81 0
632 34 -82 0
632 -34 82 0
-632 34 82 0
-632 -34 -82 0
633 35 -83 0
633 -35 83 0
-633 35 83 0
-633 -35 -83 0
634 36 -84 0
634 -36 84 0
-634 36 84 0
-634 -36 -84 0
635 37 -85 0
635 -37 85 0
-635 37 85 0
-635 -37 -85 0
636 38 -86 0
636 -38 86 0
-636 38 86 0
-636 -38 -86 0
637 39 -87 0
637 -39 87 0
-637 39 87 0
-637 -39 -87 0
638 40 -88 0
638 -40 88 0
-638 40 88 0
-638 -40 -88 0
639 41 -89 0
639 -41 89 0
-639 41 89 0
-639 -41 -89 0
640 42 -90 0
640 -42 90 0
-640 42 90 0
-640 -42 -90 0
641 43 -91 0
641 -43 91 0
-641 43 91 0
-641 -43 -91 0
642 44 -92 0
642 -44 92 0
-642 44 92 0
-642 -44 -92 0
643 45 -93 0
643 -45 93 0
-643 45 93 0
-643 -45 -93 0
644 46 -94 0
644 -46 94 0
-644 46 94 0
-644 -46 -94 0
645 47 -95 0
645 -47 95 0
-645 47 95 0
-645 -47 -95 0
646 48 -96 0
646 -48 96 0
-646 48 96 0
-646 -48 -96 0
647 631 632 633 634 635 636 637 638 639 640 641 642 643 644 645 646 0
-647 -646 0
-647 -645 0
-647 -644 0
-647 -643 0
-647 -642 0
-647 -641 0
-647 -640 0
-647 -639 0
-647 -638 0
-647 -637 0
-647 -636 0
-647 -635 0
-647 -634 0
-647 -633 0
-647 -632 0
-647 -631 0
648 464 -480 0
648 -464 480 0
-648 464 480 0
-648 -464 -480 0
649 465 -481 0
649 -465 481 0
-649 465 481 0
-649 -465 -481 0
650 466 -482 0
650 -466 482 0
-650 466 482 0
-650 -466 -482 0
651 467 -483 0
651 -467 483 0
-651 467 483 0
-651 -467 -483 0
652 468 -484 0
652 -468 484 0
-652 468 484 0
-652 -468 -484 0
653 469 -485 0
653 -469 485 0
-653 469 485 0
-653 -469 -485 0
654 470 -486 0
654 -470 486 0
-654 470 486 0
-654 -470 -486 0
655 471 -487 0
655 -471 487 0
-655 471 487 0
-655 -471 -487 0
656 472 -488 0
656 -472 488 0
-656 472 488 0
-656 -472 -488 0
657 473 -489 0
657 -473 489 0
-657 473 489 0
-657 -473 -489 0
658 474 -490 0
658 -474 490 0
-658 474 490 0
-658 -474 -490 0
659 475 -491 0
659 -475 491 0
-659 475 491 0
-659 -475 -491 0
660 476 -492 0
660 -476 492 0
-660 476 492 0
-660 -476 -492 0
661 477 -493 0
661 -477 493 0
-661 477 493 0
-661 -477 -493 0
662 478 -494 0
662 -478 494 0
-662 478 494 0
-662 -478 -494 0
663 479 -495 0
663 -479 495 0
-663 479 495 0
-663 -479 -495 0
664 -647 0
664 648 649 650 651 652 653 654 655 656 657 658 659 660 661 662 663 0
-664 -663 0
-664 -662 0
-664 -661 0
-664 -660 0
-664 -659 0
-664 -658 0
-664 -657 0
-664 -656 0
-664 -655 0
-664 -654 0
-664 -653 0
-664 -652 0
-664 -651 0
-664 -650 0
-664 -649 0
-664 -648 0
